n_res = 4;
rc = [ 28, 18, 27, 22 ];
n_tasks = 60;
d = [ 8, 10, 10, 5, 1, 10, 8, 10, 9, 1, 4, 3, 10, 1, 1, 8, 4, 6, 6, 8, 10, 3, 3, 1, 5, 1, 9, 8, 10, 5, 6, 7, 2, 5, 8, 1, 9, 8, 6, 8, 5, 7, 5, 3, 5, 3, 1, 2, 10, 2, 7, 3, 6, 3, 7, 2, 10, 2, 9, 8 ];
rr = [| 8, 7, 0, 0, 6, 0, 0, 3, 5, 4, 0, 0, 8, 0, 6, 9, 0, 0, 0, 0, 8, 6, 2, 7, 8, 0, 8, 6, 8, 0, 8, 6, 2, 10, 5, 0, 1, 0, 0, 0, 0, 0, 0, 0, 6, 0, 0, 3, 7, 3, 8, 0, 7, 0, 8, 0, 0, 0, 7, 10
      | 7, 1, 1, 0, 0, 0, 2, 0, 0, 0, 10, 0, 0, 2, 0, 0, 7, 2, 2, 0, 9, 0, 0, 2, 7, 8, 8, 0, 7, 0, 0, 0, 0, 8, 0, 8, 5, 3, 0, 4, 0, 5, 0, 2, 0, 0, 3, 0, 0, 2, 6, 0, 0, 10, 6, 0, 0, 0, 10, 10
      | 3, 9, 0, 0, 4, 0, 10, 0, 0, 0, 10, 5, 9, 0, 6, 0, 3, 0, 0, 7, 0, 0, 10, 10, 0, 1, 9, 0, 0, 5, 0, 0, 0, 7, 1, 0, 7, 0, 1, 10, 3, 6, 9, 0, 0, 9, 0, 0, 0, 8, 0, 0, 0, 0, 4, 9, 7, 8, 2, 0
      | 0, 0, 8, 6, 0, 6, 0, 0, 8, 0, 0, 7, 5, 0, 0, 9, 0, 0, 1, 0, 5, 3, 9, 0, 10, 0, 0, 0, 2, 0, 2, 3, 0, 1, 5, 5, 5, 0, 4, 10, 0, 0, 0, 2, 0, 10, 0, 0, 6, 0, 0, 10, 7, 6, 0, 0, 0, 9, 9, 9 |];
suc = [ { 5, 9, 24 },
       { 4, 6, 8 },
       { 7, 18, 42 },
       { 12, 16, 17 },
       { 14, 20, 40 },
       { 32, 46, 49 },
       { 10, 33, 46 },
       { 13, 26, 28 },
       { 11, 15, 23 },
       { 22, 36, 47 },
       { 28, 34, 41 },
       { 29, 51 },
       { 20, 31 },
       { 29, 41, 44 },
       { 22, 25, 27 },
       { 19, 36, 51 },
       { 21, 32 },
       { 19, 22, 36 },
       { 38, 40, 45 },
       { 25, 30, 35 },
       { 27 },
       { 26, 32 },
       { 30, 42 },
       { 29, 31, 59 },
       { 37, 42, 57 },
       { 34, 41 },
       { 33, 37, 53 },
       { 31, 37, 49 },
       { 30, 38, 50 },
       { 56 },
       { 56 },
       { 38, 55 },
       { 34, 48, 50 },
       { 35, 45, 51 },
       { 52, 57 },
       { 39, 48 },
       { 44, 46 },
       { 43, 54 },
       { 40, 45, 54 },
       { 49, 55, 56 },
       { 43 },
       { 43, 44 },
       { 53 },
       { 47, 48 },
       { 57 },
       { 47, 54 },
       { 60 },
       { 52 },
       { 50, 53 },
       { 58 },
       { 52 },
       { 55, 60 },
       { 58 },
       { 60 },
       { 59 },
       { 58 },
       { 59 },
       {  },
       {  },
       {  } ];
